60
2 0 18
2 1 9
3 0 9
3 1 4
3 2 11
4 0 5
4 1 17
4 2 11
4 3 15
5 0 20
5 1 1
5 3 12
5 4 3
6 1 7
6 3 19
6 4 18
6 5 20
7 0 2
7 1 2
7 5 19
8 0 14
8 1 16
8 3 18
8 7 1
9 1 15
9 2 6
9 3 4
9 5 19
9 6 4
9 7 13
9 8 20
10 0 2
10 1 18
10 2 14
10 4 2
10 5 13
10 6 1
10 7 4
11 0 5
11 1 14
11 2 18
11 4 3
11 5 5
11 7 10
11 8 20
11 9 16
11 10 17
12 0 19
12 2 9
12 3 11
12 4 20
12 5 18
12 8 3
12 9 11
12 11 13
13 1 11
13 2 16
13 3 10
13 5 13
13 6 13
13 7 10
13 8 17
13 11 8
14 0 1
14 1 5
14 4 3
14 5 18
14 8 19
14 10 8
14 11 10
14 12 8
15 0 2
15 1 17
15 2 3
15 5 9
15 6 17
15 7 19
15 8 20
15 9 18
15 10 13
15 11 1
15 14 15
16 2 17
16 3 17
16 5 17
16 6 8
16 7 2
16 8 12
16 9 10
16 10 10
16 11 10
16 13 6
16 14 3
16 15 9
17 1 5
17 3 18
17 4 11
17 5 4
17 6 18
17 7 19
17 8 4
17 13 16
17 16 17
18 0 14
18 1 9
18 3 6
18 4 19
18 5 4
18 6 18
18 7 5
18 10 14
18 11 6
18 12 13
18 13 13
18 14 20
18 15 19
18 17 7
19 0 14
19 1 17
19 3 3
19 4 4
19 5 6
19 6 14
19 7 1
19 8 18
19 9 19
19 11 15
19 14 15
19 16 13
19 17 5
19 18 6
20 1 7
20 2 3
20 4 8
20 5 3
20 6 10
20 8 13
20 9 17
20 11 13
20 12 9
20 13 20
20 15 3
20 16 1
20 17 6
20 18 19
20 19 1
21 1 19
21 2 4
21 3 6
21 6 16
21 7 2
21 8 13
21 9 12
21 10 17
21 11 18
21 13 8
21 15 18
21 18 20
21 19 1
22 0 5
22 3 2
22 4 15
22 5 16
22 6 12
22 8 15
22 9 8
22 11 6
22 12 5
22 14 4
22 16 14
22 17 20
22 19 14
22 20 19
23 0 14
23 3 11
23 4 9
23 5 4
23 6 8
23 7 10
23 8 19
23 9 3
23 11 5
23 12 4
23 13 16
23 14 10
23 16 4
23 17 13
23 18 4
23 20 13
23 21 16
24 2 7
24 4 13
24 5 1
24 8 10
24 10 9
24 11 3
24 14 13
24 17 20
24 20 12
24 22 5
24 23 12
25 2 7
25 3 18
25 4 5
25 7 11
25 9 10
25 10 1
25 11 8
25 12 16
25 14 14
25 15 4
25 16 18
25 17 20
25 18 16
25 20 5
25 22 17
25 23 10
25 24 7
26 2 16
26 3 8
26 4 5
26 7 7
26 8 18
26 9 19
26 11 19
26 13 2
26 16 11
26 17 7
26 19 19
26 20 11
26 21 9
26 22 4
26 23 17
27 0 3
27 1 13
27 3 1
27 4 6
27 5 9
27 6 5
27 7 11
27 8 12
27 9 9
27 10 2
27 13 15
27 15 1
27 16 6
27 17 11
27 18 14
27 20 7
27 21 17
28 0 20
28 1 14
28 2 1
28 3 5
28 4 15
28 7 7
28 8 14
28 9 12
28 10 1
28 11 14
28 14 15
28 15 20
28 16 2
28 17 6
28 18 16
28 20 10
28 23 18
28 24 6
28 25 18
28 26 19
28 27 16
29 0 3
29 1 6
29 3 5
29 4 4
29 6 18
29 7 17
29 8 12
29 9 20
29 11 5
29 12 10
29 13 12
29 14 2
29 15 7
29 16 9
29 17 14
29 18 17
29 20 12
29 21 13
29 22 13
29 23 18
29 24 19
29 26 19
29 28 10
30 0 5
30 1 2
30 2 17
30 3 7
30 4 9
30 5 18
30 6 3
30 7 2
30 8 4
30 9 10
30 10 14
30 13 6
30 14 12
30 15 16
30 16 18
30 17 16
30 18 19
30 19 11
30 20 7
30 21 20
30 22 11
30 23 5
30 26 10
30 27 7
30 28 12
30 29 11
31 1 6
31 2 14
31 4 18
31 5 13
31 6 6
31 7 9
31 8 2
31 9 10
31 10 16
31 12 15
31 13 9
31 14 16
31 15 3
31 16 10
31 17 18
31 18 2
31 21 6
31 22 2
31 23 8
31 24 16
31 28 13
32 0 2
32 2 2
32 3 4
32 4 13
32 5 9
32 6 4
32 8 6
32 9 10
32 11 20
32 13 19
32 17 20
32 18 8
32 20 20
32 21 1
32 22 10
32 23 2
32 24 7
32 25 1
32 26 4
32 27 9
32 30 1
32 31 14
33 0 17
33 1 20
33 2 9
33 4 11
33 6 1
33 7 14
33 8 5
33 9 8
33 10 12
33 12 3
33 14 10
33 18 4
33 19 16
33 21 20
33 23 7
33 25 1
33 29 5
33 30 12
33 31 20
33 32 1
34 0 13
34 1 4
34 3 5
34 4 6
34 5 14
34 8 2
34 9 12
34 10 3
34 11 6
34 13 4
34 15 11
34 16 10
34 17 16
34 18 2
34 19 2
34 22 8
34 23 12
34 26 2
34 28 2
34 29 20
34 31 15
34 32 20
35 0 20
35 1 9
35 2 1
35 5 20
35 6 10
35 7 15
35 8 1
35 9 7
35 10 18
35 11 6
35 14 17
35 15 18
35 16 14
35 17 16
35 18 17
35 20 13
35 21 16
35 23 9
35 24 20
35 26 17
35 27 3
35 28 15
35 29 8
35 30 18
35 32 3
35 33 17
36 1 20
36 2 6
36 5 3
36 8 15
36 9 4
36 10 14
36 11 15
36 14 19
36 15 7
36 16 18
36 17 15
36 18 13
36 19 1
36 21 15
36 22 12
36 24 19
36 26 2
36 28 7
36 29 19
36 30 14
36 31 19
36 32 15
36 33 19
36 34 4
36 35 5
37 0 7
37 1 4
37 2 8
37 3 10
37 4 19
37 5 2
37 6 13
37 7 12
37 8 14
37 9 1
37 10 1
37 12 13
37 13 5
37 14 20
37 15 5
37 16 10
37 17 3
37 18 5
37 19 7
37 20 8
37 21 9
37 22 1
37 23 15
37 25 11
37 27 6
37 29 9
37 31 7
37 32 3
37 33 9
37 35 16
38 2 17
38 3 12
38 4 13
38 5 12
38 7 17
38 8 9
38 10 11
38 12 3
38 14 1
38 15 17
38 16 15
38 17 5
38 18 19
38 19 9
38 21 4
38 22 14
38 24 17
38 27 5
38 28 14
38 29 4
38 30 3
38 31 3
38 32 17
38 33 12
38 34 20
38 35 11
39 0 3
39 1 8
39 2 8
39 4 15
39 5 2
39 6 16
39 9 10
39 11 12
39 12 18
39 15 10
39 18 5
39 20 11
39 21 2
39 22 17
39 23 18
39 24 14
39 25 2
39 27 12
39 30 9
39 32 14
39 33 11
39 36 8
39 37 13
40 0 11
40 1 10
40 2 15
40 3 6
40 5 19
40 6 12
40 7 8
40 8 7
40 10 4
40 11 20
40 12 12
40 14 1
40 15 19
40 18 20
40 19 4
40 20 14
40 21 18
40 22 15
40 24 10
40 26 19
40 27 7
40 28 11
40 30 5
40 31 18
40 33 8
40 39 14
41 1 9
41 2 12
41 3 6
41 4 7
41 5 10
41 6 4
41 7 17
41 8 3
41 9 3
41 10 1
41 12 2
41 14 9
41 15 2
41 16 15
41 17 15
41 18 4
41 19 13
41 20 20
41 22 19
41 23 14
41 24 11
41 26 10
41 27 11
41 28 1
41 30 17
41 31 2
41 33 18
41 34 8
41 35 14
41 36 12
42 0 11
42 1 7
42 2 12
42 3 12
42 5 10
42 6 8
42 8 14
42 9 9
42 11 16
42 12 5
42 13 5
42 14 7
42 15 8
42 17 8
42 18 18
42 20 6
42 22 1
42 24 15
42 26 4
42 27 11
42 28 11
42 30 14
42 31 18
42 32 1
42 34 3
42 36 20
42 37 5
42 38 18
42 39 3
42 41 9
43 1 18
43 3 12
43 4 19
43 6 8
43 7 9
43 8 5
43 10 9
43 11 2
43 14 2
43 16 4
43 17 13
43 18 20
43 19 1
43 20 6
43 21 11
43 22 6
43 24 8
43 26 11
43 27 4
43 28 10
43 29 3
43 30 10
43 31 4
43 32 19
43 33 19
43 34 18
43 35 10
43 36 2
43 37 4
43 40 8
43 42 12
44 0 14
44 2 16
44 3 1
44 4 12
44 5 8
44 6 18
44 7 4
44 11 4
44 12 15
44 14 6
44 15 7
44 18 11
44 19 3
44 20 20
44 21 9
44 22 19
44 23 11
44 24 11
44 26 1
44 27 8
44 28 1
44 30 11
44 32 11
44 33 10
44 34 17
44 35 2
44 37 4
44 38 6
44 41 7
44 42 16
44 43 18
45 0 14
45 1 5
45 2 16
45 3 17
45 4 13
45 5 10
45 6 12
45 8 4
45 11 3
45 12 10
45 13 20
45 14 14
45 17 19
45 19 8
45 20 15
45 23 13
45 25 6
45 27 2
45 28 6
45 30 1
45 32 18
45 33 9
45 35 12
45 36 19
45 38 8
45 39 19
45 40 13
45 41 8
45 42 1
45 43 12
45 44 8
46 0 16
46 2 14
46 5 2
46 6 4
46 7 7
46 8 15
46 9 20
46 10 14
46 11 16
46 13 9
46 14 16
46 15 11
46 16 20
46 17 11
46 18 1
46 20 7
46 21 19
46 22 15
46 23 7
46 24 9
46 25 20
46 26 18
46 28 11
46 31 10
46 32 12
46 33 10
46 34 14
46 35 4
46 36 1
46 37 6
46 39 8
46 40 20
46 41 14
46 42 8
46 43 16
46 44 12
46 45 12
47 0 11
47 1 1
47 2 2
47 4 1
47 5 16
47 6 19
47 8 3
47 13 18
47 14 7
47 15 3
47 16 8
47 17 17
47 19 14
47 20 17
47 21 13
47 23 11
47 24 14
47 27 3
47 28 6
47 29 3
47 30 3
47 31 9
47 32 3
47 33 2
47 34 11
47 37 8
47 38 10
47 40 9
47 42 19
47 43 14
47 45 17
47 46 10
48 0 17
48 1 4
48 2 15
48 3 3
48 4 4
48 5 2
48 6 9
48 7 6
48 8 11
48 9 5
48 10 1
48 11 13
48 13 17
48 14 4
48 17 4
48 18 16
48 19 17
48 20 7
48 21 9
48 22 7
48 24 3
48 25 6
48 26 2
48 27 17
48 30 18
48 33 20
48 34 18
48 35 11
48 36 15
48 37 6
48 38 17
48 39 12
48 40 19
48 41 3
48 42 4
48 43 7
48 44 9
48 46 19
48 47 18
49 0 16
49 1 1
49 3 14
49 4 8
49 5 11
49 6 12
49 7 13
49 9 13
49 10 8
49 13 13
49 14 4
49 15 11
49 16 4
49 17 19
49 18 12
49 20 1
49 22 13
49 23 11
49 24 15
49 25 3
49 27 5
49 29 6
49 30 8
49 34 18
49 35 10
49 38 3
49 39 18
49 40 13
49 41 7
49 42 19
49 43 18
49 44 13
49 45 17
49 46 15
49 48 19
50 0 17
50 1 12
50 3 16
50 4 7
50 5 14
50 6 18
50 7 18
50 8 6
50 10 5
50 11 9
50 12 15
50 13 9
50 14 1
50 16 13
50 17 10
50 19 4
50 20 8
50 22 5
50 24 16
50 25 11
50 26 6
50 27 2
50 28 17
50 29 3
50 30 6
50 31 12
50 32 11
50 33 1
50 35 2
50 36 20
50 41 18
50 42 20
50 43 14
50 44 18
50 45 6
50 46 6
50 47 18
50 48 20
51 0 13
51 1 9
51 2 3
51 3 15
51 4 16
51 5 13
51 6 7
51 7 14
51 8 4
51 9 9
51 10 14
51 11 19
51 12 20
51 15 4
51 16 9
51 21 16
51 23 9
51 24 12
51 28 15
51 29 18
51 30 3
51 32 5
51 34 2
51 37 2
51 38 2
51 39 16
51 40 19
51 41 9
51 42 19
51 43 12
51 44 15
51 45 13
51 46 5
51 47 3
51 48 1
52 1 20
52 4 19
52 5 2
52 7 8
52 8 6
52 9 19
52 10 19
52 12 13
52 15 4
52 16 6
52 17 4
52 18 6
52 20 14
52 21 20
52 22 18
52 23 11
52 24 15
52 25 9
52 26 1
52 28 8
52 29 1
52 30 9
52 34 18
52 35 13
52 37 16
52 38 17
52 39 9
52 40 12
52 41 9
52 42 3
52 43 2
52 48 8
52 49 1
53 1 2
53 2 9
53 3 3
53 4 17
53 5 7
53 6 12
53 7 14
53 9 9
53 10 7
53 14 5
53 15 6
53 21 16
53 22 6
53 23 6
53 26 18
53 27 14
53 28 20
53 30 11
53 31 13
53 33 13
53 34 18
53 35 5
53 36 10
53 37 8
53 38 9
53 39 5
53 40 17
53 43 15
53 44 17
53 45 8
53 46 5
53 47 19
53 49 13
53 50 1
53 52 1
54 0 1
54 1 14
54 2 2
54 3 11
54 4 6
54 6 12
54 7 11
54 8 10
54 9 4
54 10 8
54 12 2
54 15 19
54 16 9
54 17 12
54 19 3
54 20 15
54 22 17
54 23 14
54 24 18
54 26 11
54 30 6
54 31 11
54 32 11
54 33 15
54 34 12
54 36 17
54 37 13
54 38 7
54 39 1
54 40 12
54 41 10
54 42 18
54 43 6
54 44 18
54 45 10
54 46 20
54 47 19
54 48 17
54 50 4
54 52 9
55 0 17
55 1 5
55 2 7
55 3 18
55 4 13
55 5 18
55 7 11
55 9 5
55 10 16
55 11 11
55 12 16
55 13 20
55 14 14
55 15 11
55 16 9
55 20 11
55 21 4
55 23 16
55 24 14
55 25 7
55 29 4
55 30 14
55 33 1
55 34 12
55 35 13
55 36 10
55 37 17
55 38 7
55 39 6
55 40 12
55 41 19
55 42 5
55 43 8
55 45 15
55 46 16
55 47 4
55 48 2
55 49 9
55 51 20
55 52 7
55 53 5
55 54 9
56 0 1
56 1 3
56 2 3
56 4 16
56 5 8
56 6 1
56 9 5
56 10 16
56 11 19
56 12 3
56 13 15
56 14 6
56 17 1
56 18 12
56 19 15
56 20 6
56 25 18
56 28 3
56 30 7
56 32 7
56 33 6
56 35 20
56 39 3
56 40 15
56 42 16
56 43 5
56 44 7
56 45 1
56 47 8
56 48 7
56 49 19
56 50 17
56 53 4
56 54 6
56 55 2
57 0 6
57 3 16
57 4 15
57 5 4
57 6 6
57 7 11
57 8 11
57 11 5
57 12 9
57 13 6
57 15 17
57 16 10
57 19 1
57 20 15
57 21 20
57 22 15
57 24 13
57 25 15
57 26 13
57 29 14
57 30 14
57 32 8
57 33 3
57 34 19
57 35 15
57 36 17
57 37 8
57 38 5
57 39 14
57 42 12
57 43 2
57 44 5
57 45 15
57 46 2
57 47 6
57 48 8
57 49 4
57 50 15
57 51 16
57 52 4
57 53 14
57 54 17
57 55 1
57 56 14
58 2 10
58 3 13
58 4 14
58 6 8
58 8 8
58 9 3
58 10 15
58 11 14
58 19 12
58 22 12
58 23 17
58 24 5
58 25 3
58 26 8
58 27 12
58 28 15
58 30 7
58 31 14
58 32 1
58 36 17
58 39 1
58 40 17
58 41 13
58 42 12
58 43 5
58 44 10
58 45 17
58 46 20
58 47 12
58 48 9
58 49 9
58 50 4
58 51 2
58 52 9
58 53 3
58 54 11
58 55 20
58 56 11
58 57 7
59 0 2
59 1 4
59 3 7
59 4 13
59 5 16
59 6 3
59 9 15
59 10 3
59 13 17
59 14 6
59 15 4
59 17 15
59 18 11
59 20 2
59 21 10
59 22 7
59 23 13
59 26 18
59 27 6
59 28 17
59 29 17
59 31 2
59 33 16
59 35 5
59 36 16
59 37 3
59 38 17
59 40 11
59 41 1
59 42 9
59 43 1
59 44 9
59 45 15
59 46 6
59 47 7
59 48 3
59 49 2
59 50 12
59 53 5
59 56 1
59 57 8
59 58 10
